objective value:                                -4168
t_x1                                                1 	(obj:-100)
t_x5                                                1 	(obj:-100)
t_x6                                                1 	(obj:-100)
t_x7                                                1 	(obj:-100)
t_x8                                                1 	(obj:-100)
t_x11                                               1 	(obj:-100)
t_x15                                               1 	(obj:-100)
t_x17                                               1 	(obj:-100)
t_x18                                               1 	(obj:-100)
t_x22                                               1 	(obj:-100)
t_x25                                               1 	(obj:-100)
t_x32                                               1 	(obj:-100)
t_x34                                               1 	(obj:-100)
t_x37                                               1 	(obj:-100)
t_x40                                               1 	(obj:-100)
t_x44                                               1 	(obj:-100)
t_x45                                               1 	(obj:-100)
t_x52                                               1 	(obj:-100)
t_x53                                               1 	(obj:-100)
t_x54                                               1 	(obj:-100)
t_x55                                               1 	(obj:-100)
t_x56                                               1 	(obj:-100)
t_x57                                               1 	(obj:-100)
t_x59                                               1 	(obj:-100)
t_x63                                               1 	(obj:-100)
t_x66                                               1 	(obj:-100)
t_x67                                               1 	(obj:-100)
t_x68                                               1 	(obj:-100)
t_x69                                               1 	(obj:-100)
t_x70                                               1 	(obj:-100)
t_x72                                               1 	(obj:-100)
t_x74                                               1 	(obj:-100)
t_x76                                               1 	(obj:-100)
t_x79                                               1 	(obj:-100)
t_x81                                               1 	(obj:-100)
t_x83                                               1 	(obj:-100)
t_x84                                               1 	(obj:-100)
t_x87                                               1 	(obj:-100)
t_x89                                               1 	(obj:-100)
t_x90                                               1 	(obj:-100)
t_x94                                               1 	(obj:-100)
t_x96                                               1 	(obj:-100)
t_x97                                               1 	(obj:-100)
t_y32_44                                            1 	(obj:1)
t_y63_76                                            1 	(obj:1)
t_y5_74                                             1 	(obj:1)
t_y12_17                                            1 	(obj:1)
t_y21_37                                            1 	(obj:1)
t_y7_22                                             1 	(obj:1)
t_y63_83                                            1 	(obj:1)
t_y6_101                                            1 	(obj:1)
t_y12_90                                            1 	(obj:1)
t_y39_57                                            1 	(obj:1)
t_y4_11                                             1 	(obj:1)
t_y25_79                                            1 	(obj:1)
t_y18_22                                            1 	(obj:1)
t_y74_75                                            1 	(obj:1)
t_y44_67                                            1 	(obj:1)
t_y1_25                                             1 	(obj:1)
t_y18_93                                            1 	(obj:1)
t_y35_90                                            1 	(obj:1)
t_y32_72                                            1 	(obj:1)
t_y11_70                                            1 	(obj:1)
t_y6_18                                             1 	(obj:1)
t_y15_84                                            1 	(obj:1)
t_y1_52                                             1 	(obj:1)
t_y15_93                                            1 	(obj:1)
t_y7_46                                             1 	(obj:1)
t_y40_75                                            1 	(obj:1)
t_y15_97                                            1 	(obj:1)
t_y70_87                                            1 	(obj:1)
t_y25_34                                            1 	(obj:1)
t_y40_44                                            1 	(obj:1)
t_y27_96                                            1 	(obj:1)
t_y17_74                                            1 	(obj:1)
t_y44_70                                            1 	(obj:1)
t_y53_100                                           1 	(obj:1)
t_y22_75                                            1 	(obj:1)
t_y34_101                                           1 	(obj:1)
t_y12_56                                            1 	(obj:1)
t_y12_22                                            1 	(obj:1)
t_y89_101                                           1 	(obj:1)
t_y66_97                                            1 	(obj:1)
t_y37_94                                            1 	(obj:1)
t_y63_72                                            1 	(obj:1)
t_y76_96                                            1 	(obj:1)
t_y33_45                                            1 	(obj:1)
t_y53_76                                            1 	(obj:1)
t_y56_79                                            1 	(obj:1)
t_y87_93                                            1 	(obj:1)
t_y34_75                                            1 	(obj:1)
t_y76_83                                            1 	(obj:1)
t_y6_89                                             1 	(obj:1)
t_y17_87                                            1 	(obj:1)
t_y67_93                                            1 	(obj:1)
t_y44_73                                            1 	(obj:1)
t_y41_89                                            1 	(obj:1)
t_y7_11                                             1 	(obj:1)
t_y81_101                                           1 	(obj:1)
t_y50_66                                            1 	(obj:1)
t_y40_52                                            1 	(obj:1)
t_y7_63                                             1 	(obj:1)
t_y37_83                                            1 	(obj:1)
t_y7_52                                             1 	(obj:1)
t_y50_87                                            1 	(obj:1)
t_y18_44                                            1 	(obj:1)
t_y55_79                                            1 	(obj:1)
t_y44_85                                            1 	(obj:1)
t_y45_79                                            1 	(obj:1)
t_y5_25                                             1 	(obj:1)
t_y1_41                                             1 	(obj:1)
t_y4_34                                             1 	(obj:1)
t_y55_57                                            1 	(obj:1)
t_y18_39                                            1 	(obj:1)
t_y74_88                                            1 	(obj:1)
t_y34_73                                            1 	(obj:1)
t_y63_89                                            1 	(obj:1)
t_y18_75                                            1 	(obj:1)
t_y53_96                                            1 	(obj:1)
t_y56_69                                            1 	(obj:1)
t_y89_96                                            1 	(obj:1)
t_y69_96                                            1 	(obj:1)
t_y15_85                                            1 	(obj:1)
t_y6_99                                             1 	(obj:1)
t_y22_70                                            1 	(obj:1)
t_y41_83                                            1 	(obj:1)
t_y34_76                                            1 	(obj:1)
t_y39_84                                            1 	(obj:1)
t_y4_74                                             1 	(obj:1)
t_y73_90                                            1 	(obj:1)
t_y32_69                                            1 	(obj:1)
t_y9_69                                             1 	(obj:1)
t_y1_32                                             1 	(obj:1)
t_y72_101                                           1 	(obj:1)
t_y32_59                                            1 	(obj:1)
t_y8_52                                             1 	(obj:1)
t_y56_90                                            1 	(obj:1)
t_y46_90                                            1 	(obj:1)
t_y66_79                                            1 	(obj:1)
t_y59_84                                            1 	(obj:1)
t_y37_76                                            1 	(obj:1)
t_y97_100                                           1 	(obj:1)
t_y8_59                                             1 	(obj:1)
t_y0_72                                             1 	(obj:1)
t_y79_90                                            1 	(obj:1)
t_y7_59                                             1 	(obj:1)
t_y37_39                                            1 	(obj:1)
t_y40_94                                            1 	(obj:1)
t_y15_18                                            1 	(obj:1)
t_y11_18                                            1 	(obj:1)
t_y44_90                                            1 	(obj:1)
t_y63_99                                            1 	(obj:1)
t_y6_53                                             1 	(obj:1)
t_y39_89                                            1 	(obj:1)
t_y1_69                                             1 	(obj:1)
t_y50_83                                            1 	(obj:1)
t_y18_40                                            1 	(obj:1)
t_y55_75                                            1 	(obj:1)
t_y22_41                                            1 	(obj:1)
t_y46_81                                            1 	(obj:1)
t_y41_67                                            1 	(obj:1)
t_y53_99                                            1 	(obj:1)
t_y32_94                                            1 	(obj:1)
t_y27_44                                            1 	(obj:1)
t_y33_44                                            1 	(obj:1)
t_y36_53                                            1 	(obj:1)
t_y55_99                                            1 	(obj:1)
t_y25_52                                            1 	(obj:1)
t_y84_100                                           1 	(obj:1)
t_y34_72                                            1 	(obj:1)
t_y33_37                                            1 	(obj:1)
t_y0_57                                             1 	(obj:1)
t_y17_53                                            1 	(obj:1)
t_y11_17                                            1 	(obj:1)
t_y18_69                                            1 	(obj:1)
